NAME : kroA150.28779.tour
COMMENT : Cost = 9611_28779
COMMENT : Found by LKH [Keld Helsgaun] Thu Nov 16 17:24:53 2017
TYPE : TOUR
DIMENSION : 152
TOUR_SECTION
1
130
131
93
28
58
61
51
125
87
145
140
135
112
132
29
46
3
14
48
100
71
41
136
128
43
123
115
120
149
55
83
34
117
9
7
57
20
12
27
86
35
150
62
60
77
110
23
98
91
45
32
109
47
151
63
6
49
90
106
84
10
113
72
21
74
11
15
17
141
59
127
36
99
102
111
104
38
24
18
94
22
70
16
88
137
79
134
53
19
75
97
4
65
66
129
26
124
118
119
143
56
139
8
92
152
42
122
80
31
89
133
138
54
40
64
144
2
114
44
50
116
82
126
95
13
76
33
146
103
147
37
5
52
78
96
39
101
121
30
107
85
68
73
69
81
25
108
67
105
142
148
-1
EOF
